c Clique máximo encontrado = 12
p edge 158 66
e 62 1
e 62 6
e 62 7
e 62 16
e 62 17
e 62 31
e 62 53
e 62 72
e 62 90
e 62 98
e 62 158
e 1 6
e 1 7
e 1 16
e 1 17
e 1 31
e 1 53
e 1 72
e 1 90
e 1 98
e 1 158
e 6 7
e 6 16
e 6 17
e 6 31
e 6 53
e 6 72
e 6 90
e 6 98
e 6 158
e 7 16
e 7 17
e 7 31
e 7 53
e 7 72
e 7 90
e 7 98
e 7 158
e 16 17
e 16 31
e 16 53
e 16 72
e 16 90
e 16 98
e 16 158
e 17 31
e 17 53
e 17 72
e 17 90
e 17 98
e 17 158
e 31 53
e 31 72
e 31 90
e 31 98
e 31 158
e 53 72
e 53 90
e 53 98
e 53 158
e 72 90
e 72 98
e 72 158
e 90 98
e 90 158
e 98 158
